s td 104 9 115
b 1 10 14 41
b 2 10 16 112
b 3 11 26 46 90
b 4 7 11 46 90
b 5 37 77 90 95 102
b 6 10 20 78
b 7 19 76 79
b 8 7 10 84 89
b 9 7 10 42 84
b 10 19 36 104
b 11 5 10 19 53
b 12 7 11 90 102
b 13 10 37 41
b 14 7 10 19 42
b 15 15 34 58 102
b 16 10 20 61 112
b 17 12 19 36 64
b 18 33 70 90 102
b 19 10 19 85 111
b 20 19 50 76 94
b 21 75 90 102 103
b 22 1 10 19 105
b 23 10 19 20 112
b 24 9 33 90 102 107
b 25 8 10 19 44 111
b 26 1 10 19 52 66
b 27 1 10 15 19 28 53 66 90 102
b 28 3 10 19 28 53 66 90 102
b 29 3 10 19 43 66 90 102
b 30 10 19 30 43 66
b 31 3 35 43 90 102
b 32 1 10 15 19 25 28 53 90 102
b 33 10 15 19 22 25 28 90 102
b 34 10 15 19 22 25 34 90 102
b 35 8 10 19 22 34 90 102 114
b 36 8 10 19 36 50 90 102 114
b 37 8 10 19 36 50 90 98 102
b 38 10 19 36 50 68 90 98 102
b 39 6 68 90 98 102
b 40 10 19 31 36 68 90 98 102
b 41 10 12 19 31 36 68
b 42 10 19 31 68 72 90 98 102
b 43 47 68 72 90 102
b 44 10 19 31 55 72 90 102
b 45 31 55 57 90 102
b 46 10 19 55 72 113
b 47 31 72 90 91 102
b 48 10 19 72 92 98
b 49 8 10 36 50 59 90 98 102
b 50 18 59 90 98 102
b 51 8 59 90 101 102
b 52 8 10 19 73 98
b 53 8 10 19 34 90 111
b 54 15 22 28 102 115
b 55 10 19 32 43 69
b 56 10 19 43 69 82 90 102
b 57 24 69 82 90 102
b 58 56 90 102 107 110
b 59 10 17 19 90 102 107 110
b 60 10 17 19 45 107
b 61 10 19 33 90 102 107 110
b 62 10 19 33 71 110
b 63 17 39 90 102 110
b 64 10 17 19 90 97 102 110
b 65 10 19 88 97 110
b 66 4 17 90 97 102
b 67 10 17 19 38 90 97 102
b 68 10 19 38 67 90 97 102
b 69 10 19 27 38 67 90 102
b 70 10 19 27 38 54
b 71 21 38 67 90 102
b 72 38 86 90 97 102
b 73 10 19 29 67 97
b 74 10 17 19 38 83
b 75 3 10 19 53 65
b 76 3 10 19 23 82
b 77 3 10 19 43 82 90 102
b 78 43 81 82 90 102
b 79 10 19 27 62 82
b 80 10 19 27 69 82 90 102
b 81 27 69 90 100 102
b 82 10 19 27 67 69 90 102
b 83 27 67 87 90 102
b 84 10 19 67 69 106
b 85 10 19 50 76 114
b 86 75 80 90 96 102
b 87 13 48 80 90 102
b 88 10 13 19 80 90 93 102
b 89 10 19 80 93 99
b 90 10 13 19 75 80 90 102
b 91 10 13 19 51 75
b 92 2 13 90 93 102
b 93 10 13 19 90 93 102 108
b 94 10 19 55 90 93 102 108
b 95 74 90 93 102 108
b 96 10 19 40 55 93
b 97 10 13 19 49 108
b 98 55 60 90 102 108
b 99 10 19 31 55 90 102 108
b 100 10 19 31 63 108
b 101 22 28 102 109 115
b 102 10 19 20 37 90
b 103 10 19 37 90 102
b 104 7 10 19 90 102
1 13
2 23
3 4
4 12
5 103
6 102
7 85
8 9
9 14
10 36
11 27
12 104
13 102
14 104
15 34
16 23
17 41
18 61
19 53
20 85
21 90
22 27
23 102
24 61
25 53
26 27
27 104
27 103
27 28
27 32
28 75
28 29
29 77
29 30
29 31
32 33
33 34
33 54
34 35
35 36
35 53
36 85
36 37
37 38
37 49
37 52
38 39
38 40
40 41
40 42
42 43
42 44
42 47
42 48
44 99
44 45
44 46
49 50
49 51
54 101
55 56
56 80
56 77
56 57
58 59
59 64
59 60
59 61
61 62
63 64
64 67
64 65
66 67
67 74
67 68
68 72
68 73
68 69
69 82
69 70
69 71
76 77
77 78
79 80
80 81
80 82
82 83
82 84
86 90
87 88
88 93
88 89
88 90
90 91
92 93
93 97
93 94
94 99
94 95
94 96
98 99
99 100
102 103
